data;
param nombreJob := 6;
param nombreRessource := 3;
param duree := 1 5 2 4 3 4 4 10 5 6 6 9;
param capaciteRessource := 1 7 2 15 3 13;
param besoinRessource : 1 2 3 :=
                    1   1 1 8
                    2   1 1 4
                    3   2 8 1
                    4   3 2 3
                    5   4 2 7
                    6   3 2 5;
end;

